projected/problems_b25_r0_d7_m100_s666/_DIMACS/b25_d7_r0_s666_021.cnf
p cnf 237 420 25
c p show 1 2 3 4 5 6 7 8 9 10 11 12 13 14 15 16 17 18 19 20 21 22 23 24 25
-189 -17 1 0
-190 2 -6 0
-191 190 0
-191 189 0
-192 -2 0
-192 -3 0
-193 -11 0
-193 -14 0
-194 193 192 0
-195 194 0
-195 191 0
-196 25 0
-196 3 0
-197 -14 -11 0
-198 197 196 0
-199 -12 7 0
-200 15 0
-200 -25 0
-201 200 199 0
-202 201 0
-202 198 0
-203 12 0
-203 -7 0
-204 -15 25 0
-205 204 0
-205 203 0
-206 -25 -3 0
-207 14 0
-207 11 0
-208 207 0
-208 206 0
-209 208 0
-209 205 0
-210 209 202 0
-211 210 195 0
-212 -23 0
-212 2 0
-213 -24 13 0
-214 213 212 0
-215 14 0
-215 -16 0
-216 -21 4 0
-217 216 215 0
-218 217 0
-218 214 0
-219 -8 1 0
-220 3 0
-220 2 0
-221 220 219 0
-222 19 0
-222 -15 0
-223 -21 0
-223 15 0
-224 223 222 0
-225 224 0
-225 221 0
-226 225 0
-226 218 0
-227 226 211 0
-228 -11 0
-229 -15 0
-229 -24 0
-230 229 0
-230 228 0
-231 17 0
-231 14 0
-232 16 6 0
-233 232 0
-233 231 0
-234 -16 0
-234 -6 0
-235 -17 -14 0
-236 235 0
-236 234 0
-237 236 233 0
-26 237 0
-26 230 0
-27 -22 -3 0
-28 -20 0
-28 1 0
-29 28 0
-29 27 0
-30 -18 0
-30 23 0
-175 -19 22 0
-181 175 30 0
-186 181 29 0
-187 186 0
-187 26 0
-188 7 -1 0
-31 23 0
-31 14 0
-32 -14 0
-32 -23 0
-33 32 31 0
-34 33 188 0
-35 10 0
-35 5 0
-36 12 0
-36 13 0
-37 36 35 0
-38 37 34 0
-39 1 0
-39 25 0
-40 -25 0
-40 -1 0
-41 40 39 0
-42 17 21 0
-43 -21 -17 0
-44 43 0
-44 42 0
-45 44 41 0
-46 6 0
-46 20 0
-47 -21 0
-47 -11 0
-48 47 0
-48 46 0
-49 48 0
-49 45 0
-50 49 0
-50 38 0
-51 50 0
-51 187 0
-52 51 227 0
-53 11 0
-54 15 24 0
-55 54 53 0
-56 234 235 0
-57 231 232 0
-58 57 0
-58 56 0
-59 58 55 0
-60 22 0
-60 3 0
-61 20 -1 0
-62 61 60 0
-63 18 -23 0
-64 19 0
-64 -22 0
-65 64 0
-65 63 0
-66 65 0
-66 62 0
-67 66 59 0
-68 -7 0
-68 1 0
-69 -23 -14 0
-70 14 23 0
-71 70 0
-71 69 0
-72 71 0
-72 68 0
-73 -10 -5 0
-74 -12 -13 0
-75 74 0
-75 73 0
-76 75 0
-76 72 0
-77 -1 -25 0
-78 25 1 0
-79 78 0
-79 77 0
-80 -17 0
-80 -21 0
-81 21 0
-81 17 0
-82 81 80 0
-83 82 0
-83 79 0
-84 -6 -20 0
-85 21 11 0
-86 85 84 0
-87 86 83 0
-88 87 76 0
-89 88 67 0
-90 17 0
-90 -1 0
-91 -2 0
-91 6 0
-92 91 90 0
-93 2 3 0
-94 11 14 0
-95 94 0
-95 93 0
-96 95 92 0
-97 205 208 0
-98 198 201 0
-99 98 0
-99 97 0
-100 99 0
-100 96 0
-101 23 -2 0
-102 24 0
-102 -13 0
-103 102 0
-103 101 0
-104 -14 16 0
-105 21 0
-105 -4 0
-106 105 0
-106 104 0
-107 106 103 0
-108 8 0
-108 -1 0
-109 -3 -2 0
-110 109 0
-110 108 0
-111 -19 15 0
-112 21 -15 0
-113 112 0
-113 111 0
-114 113 110 0
-115 114 107 0
-116 115 0
-116 100 0
-117 116 89 0
-118 117 0
-118 52 0
-119 6 22 0
-120 19 4 0
-121 120 0
-121 119 0
-122 6 -12 0
-123 6 -4 0
-124 123 122 0
-125 124 0
-125 121 0
-126 5 0
-126 19 0
-127 -7 0
-127 -21 0
-128 127 0
-128 126 0
-129 25 0
-129 6 0
-130 22 0
-131 130 0
-131 129 0
-132 131 0
-132 128 0
-133 132 125 0
-134 -8 -1 0
-135 6 0
-135 -10 0
-136 135 0
-136 134 0
-137 3 0
-137 -15 0
-138 -17 11 0
-139 138 137 0
-140 139 136 0
-141 19 0
-141 23 0
-142 5 -6 0
-143 142 0
-143 141 0
-144 13 0
-144 -22 0
-145 16 0
-145 4 0
-146 145 0
-146 144 0
-147 146 0
-147 143 0
-148 147 140 0
-149 148 0
-149 133 0
-150 3 0
-150 -9 0
-151 3 0
-151 -18 0
-152 151 150 0
-153 10 16 0
-154 27 0
-154 153 0
-155 154 0
-155 152 0
-156 -1 0
-156 24 0
-157 23 0
-157 -17 0
-158 157 156 0
-159 -12 0
-159 4 0
-160 -5 -17 0
-161 160 159 0
-162 161 158 0
-163 162 155 0
-164 1 0
-164 -17 0
-165 164 0
-165 156 0
-166 15 0
-166 -24 0
-167 -20 -25 0
-168 167 166 0
-169 20 0
-169 25 0
-170 -15 24 0
-171 170 169 0
-172 171 0
-172 168 0
-173 172 0
-173 165 0
-174 9 0
-174 14 0
-176 4 1 0
-177 176 0
-177 174 0
-178 -19 -18 0
-179 -1 -9 0
-180 179 178 0
-182 180 0
-182 177 0
-183 182 173 0
-184 183 163 0
-185 184 0
-185 149 0
185 118 0
-53 -228 0
-229 -54 0
-54 -229 0
-55 -230 0
-232 -234 0
-231 -235 0
-235 -231 0
-58 -237 0
-59 -26 0
-60 -27 0
-61 -28 0
-62 -29 0
-29 -62 0
-30 -63 0
-63 -30 0
-64 -175 0
-65 -181 0
-181 -65 0
-186 -66 0
-66 -186 0
-67 -187 0
-187 -67 0
-188 -68 0
-71 -33 0
-33 -71 0
-34 -72 0
-73 -35 0
-74 -36 0
-75 -37 0
-37 -75 0
-38 -76 0
-79 -41 0
-44 -82 0
-82 -44 0
-83 -45 0
-45 -83 0
-46 -84 0
-85 -47 0
-47 -85 0
-48 -86 0
-49 -87 0
-50 -88 0
-51 -89 0
-89 -51 0
-90 -189 0
-189 -90 0
-190 -91 0
-191 -92 0
-92 -191 0
-192 -93 0
-193 -94 0
-194 -95 0
-95 -194 0
-96 -195 0
-195 -96 0
-199 -203 0
-203 -199 0
-200 -204 0
-204 -200 0
-205 -201 0
-201 -205 0
-206 -196 0
-196 -206 0
-197 -207 0
-198 -208 0
-208 -198 0
-99 -210 0
-210 -99 0
-211 -100 0
-100 -211 0
-101 -212 0
-213 -102 0
-102 -213 0
-103 -214 0
-215 -104 0
-104 -215 0
-216 -105 0
-105 -216 0
-106 -217 0
-107 -218 0
-218 -107 0
-219 -108 0
-108 -219 0
-220 -109 0
-109 -220 0
-110 -221 0
-111 -222 0
-223 -112 0
-112 -223 0
-113 -224 0
-114 -225 0
-225 -114 0
-226 -115 0
-115 -226 0
-116 -227 0
-227 -116 0
-167 -169 0
-169 -167 0
-170 -166 0
-166 -170 0
