projected/problems_b25_r0_d7_m100_s666/b25_d7_r0_s666_021.smt2
(set-logic QF_UF)
(declare-fun A0 () Bool)
(declare-fun A1 () Bool)
(declare-fun A2 () Bool)
(declare-fun A3 () Bool)
(declare-fun A4 () Bool)
(declare-fun A5 () Bool)
(declare-fun A6 () Bool)
(declare-fun A7 () Bool)
(declare-fun A8 () Bool)
(declare-fun A9 () Bool)
(declare-fun A10 () Bool)
(declare-fun A11 () Bool)
(declare-fun A12 () Bool)
(declare-fun A13 () Bool)
(declare-fun A14 () Bool)
(declare-fun A15 () Bool)
(declare-fun A16 () Bool)
(declare-fun A17 () Bool)
(declare-fun A18 () Bool)
(declare-fun A19 () Bool)
(declare-fun A20 () Bool)
(declare-fun A21 () Bool)
(declare-fun A22 () Bool)
(declare-fun A23 () Bool)
(declare-fun A24 () Bool)
(assert (let ((.def_0 (and A10 A10))) (let ((.def_1 (not A23))) (let ((.def_2 (not A14))) (let ((.def_3 (and .def_2 .def_1))) (let ((.def_4 (not .def_3))) (let ((.def_5 (or .def_4 .def_0))) (let ((.def_6 (or A15 A5))) (let ((.def_7 (and A16 A13))) (let ((.def_8 (not .def_7))) (let ((.def_9 (= .def_8 .def_6))) (let ((.def_10 (or .def_9 .def_5))) (let ((.def_11 (and A21 A2))) (let ((.def_12 (not A0))) (let ((.def_13 (or A19 .def_12))) (let ((.def_14 (or .def_13 .def_11))) (let ((.def_15 (not .def_14))) (let ((.def_16 (not A17))) (let ((.def_17 (and .def_16 A22))) (let ((.def_18 (not .def_17))) (let ((.def_19 (not A21))) (let ((.def_20 (and A18 .def_19))) (let ((.def_21 (and .def_20 .def_18))) (let ((.def_22 (not .def_21))) (let ((.def_23 (or .def_22 .def_15))) (let ((.def_24 (not .def_23))) (let ((.def_25 (or .def_24 .def_10))) (let ((.def_26 (not .def_25))) (let ((.def_27 (or A6 .def_12))) (let ((.def_28 (not A13))) (let ((.def_29 (= .def_28 A22))) (let ((.def_30 (not .def_29))) (let ((.def_31 (or .def_30 .def_27))) (let ((.def_32 (not A4))) (let ((.def_33 (not A9))) (let ((.def_34 (or .def_33 .def_32))) (let ((.def_35 (not A12))) (let ((.def_36 (not A11))) (let ((.def_37 (or .def_36 .def_35))) (let ((.def_38 (and .def_37 .def_34))) (let ((.def_39 (not .def_38))) (let ((.def_40 (or .def_39 .def_31))) (let ((.def_41 (not A24))) (let ((.def_42 (= .def_41 A0))) (let ((.def_43 (not A16))) (let ((.def_44 (= A20 .def_43))) (let ((.def_45 (not .def_44))) (let ((.def_46 (and .def_45 .def_42))) (let ((.def_47 (not .def_46))) (let ((.def_48 (and A5 A19))) (let ((.def_49 (or A20 A10))) (let ((.def_50 (not .def_49))) (let ((.def_51 (and .def_50 .def_48))) (let ((.def_52 (and .def_51 .def_47))) (let ((.def_53 (and .def_52 .def_40))) (let ((.def_54 (and .def_53 .def_26))) (let ((.def_55 (not .def_54))) (let ((.def_56 (and A16 .def_12))) (let ((.def_57 (not .def_56))) (let ((.def_58 (not A5))) (let ((.def_59 (or A1 .def_58))) (let ((.def_60 (and .def_59 .def_57))) (let ((.def_61 (not .def_60))) (let ((.def_62 (not A2))) (let ((.def_63 (not A1))) (let ((.def_64 (and .def_63 .def_62))) (let ((.def_65 (not A10))) (let ((.def_66 (and .def_65 .def_28))) (let ((.def_67 (or .def_66 .def_64))) (let ((.def_68 (not .def_67))) (let ((.def_69 (or .def_68 .def_61))) (let ((.def_70 (not .def_69))) (let ((.def_71 (or .def_36 A6))) (let ((.def_72 (not .def_71))) (let ((.def_73 (and A14 .def_41))) (let ((.def_74 (not .def_73))) (let ((.def_75 (and .def_74 .def_72))) (let ((.def_76 (not .def_75))) (let ((.def_77 (or .def_41 .def_62))) (let ((.def_78 (not .def_77))) (let ((.def_79 (or .def_28 .def_65))) (let ((.def_80 (or .def_79 .def_78))) (let ((.def_81 (not .def_80))) (let ((.def_82 (= .def_81 .def_76))) (let ((.def_83 (not .def_82))) (let ((.def_84 (or .def_83 .def_70))) (let ((.def_85 (not .def_84))) (let ((.def_86 (or A22 .def_63))) (let ((.def_87 (or .def_1 A12))) (let ((.def_88 (not .def_87))) (let ((.def_89 (and .def_88 .def_86))) (let ((.def_90 (not A15))) (let ((.def_91 (and A13 .def_90))) (let ((.def_92 (not .def_91))) (let ((.def_93 (not A20))) (let ((.def_94 (or .def_93 A3))) (let ((.def_95 (not .def_94))) (let ((.def_96 (and .def_95 .def_92))) (let ((.def_97 (or .def_96 .def_89))) (let ((.def_98 (not .def_97))) (let ((.def_99 (not A7))) (let ((.def_100 (or .def_99 A0))) (let ((.def_101 (not .def_100))) (let ((.def_102 (and A2 A1))) (let ((.def_103 (not .def_102))) (let ((.def_104 (and .def_103 .def_101))) (let ((.def_105 (not A18))) (let ((.def_106 (or .def_105 A14))) (let ((.def_107 (and .def_93 A14))) (let ((.def_108 (not .def_107))) (let ((.def_109 (and .def_108 .def_106))) (let ((.def_110 (or .def_109 .def_104))) (let ((.def_111 (not .def_110))) (let ((.def_112 (and .def_111 .def_98))) (let ((.def_113 (not .def_112))) (let ((.def_114 (and .def_113 .def_85))) (let ((.def_115 (not .def_114))) (let ((.def_116 (= .def_115 .def_55))) (let ((.def_117 (and .def_58 .def_19))) (let ((.def_118 (not .def_117))) (let ((.def_119 (not A3))) (let ((.def_120 (and .def_105 .def_119))) (let ((.def_121 (not .def_120))) (let ((.def_122 (and .def_121 .def_118))) (let ((.def_123 (not .def_122))) (let ((.def_124 (and .def_58 A11))) (let ((.def_125 (or A5 .def_119))) (let ((.def_126 (not .def_125))) (let ((.def_127 (and .def_126 .def_124))) (let ((.def_128 (or .def_127 .def_123))) (let ((.def_129 (and A4 A18))) (let ((.def_130 (or A6 A20))) (let ((.def_131 (not .def_130))) (let ((.def_132 (and .def_131 .def_129))) (let ((.def_133 (or .def_41 .def_58))) (let ((.def_134 (not .def_133))) (let ((.def_135 (and .def_19 .def_19))) (let ((.def_136 (not .def_135))) (let ((.def_137 (and .def_136 .def_134))) (let ((.def_138 (and .def_137 .def_132))) (let ((.def_139 (not .def_138))) (let ((.def_140 (and .def_139 .def_128))) (let ((.def_141 (and A7 A0))) (let ((.def_142 (not .def_141))) (let ((.def_143 (or .def_58 A9))) (let ((.def_144 (not .def_143))) (let ((.def_145 (and .def_144 .def_142))) (let ((.def_146 (not .def_145))) (let ((.def_147 (or .def_62 A14))) (let ((.def_148 (or .def_43 A10))) (let ((.def_149 (not .def_148))) (let ((.def_150 (and .def_149 .def_147))) (let ((.def_151 (and .def_150 .def_146))) (let ((.def_152 (not A22))) (let ((.def_153 (or .def_105 .def_152))) (let ((.def_154 (not .def_153))) (let ((.def_155 (and .def_32 A5))) (let ((.def_156 (not .def_155))) (let ((.def_157 (and .def_156 .def_154))) (let ((.def_158 (and A12 .def_19))) (let ((.def_159 (or .def_90 .def_119))) (let ((.def_160 (not .def_159))) (let ((.def_161 (and .def_160 .def_158))) (let ((.def_162 (and .def_161 .def_157))) (let ((.def_163 (not .def_162))) (let ((.def_164 (and .def_163 .def_151))) (let ((.def_165 (or .def_164 .def_140))) (let ((.def_166 (not A8))) (let ((.def_167 (and A2 .def_166))) (let ((.def_168 (not .def_167))) (let ((.def_169 (and A2 .def_16))) (let ((.def_170 (not .def_169))) (let ((.def_171 (and .def_170 .def_168))) (let ((.def_172 (or A9 A15))) (let ((.def_173 (not .def_11))) (let ((.def_174 (and .def_173 .def_172))) (let ((.def_175 (not .def_174))) (let ((.def_176 (or .def_175 .def_171))) (let ((.def_177 (not .def_176))) (let ((.def_178 (or A0 .def_1))) (let ((.def_179 (not .def_178))) (let ((.def_180 (and A22 .def_43))) (let ((.def_181 (or .def_180 .def_179))) (let ((.def_182 (or A11 .def_119))) (let ((.def_183 (or .def_32 .def_43))) (let ((.def_184 (not .def_183))) (let ((.def_185 (and .def_184 .def_182))) (let ((.def_186 (not .def_185))) (let ((.def_187 (or .def_186 .def_181))) (let ((.def_188 (or .def_187 .def_177))) (let ((.def_189 (not .def_188))) (let ((.def_190 (and .def_12 A23))) (let ((.def_191 (not .def_190))) (let ((.def_192 (and A0 .def_43))) (let ((.def_193 (not .def_192))) (let ((.def_194 (or .def_193 .def_191))) (let ((.def_195 (not A19))) (let ((.def_196 (or .def_195 .def_41))) (let ((.def_197 (not .def_196))) (let ((.def_198 (or .def_2 A23))) (let ((.def_199 (not .def_198))) (let ((.def_200 (= .def_199 .def_197))) (let ((.def_201 (not .def_200))) (let ((.def_202 (or .def_201 .def_194))) (let ((.def_203 (or .def_166 .def_28))) (let ((.def_204 (or A3 A0))) (let ((.def_205 (not .def_204))) (let ((.def_206 (or .def_205 .def_203))) (let ((.def_207 (not .def_206))) (let ((.def_208 (or .def_105 .def_16))) (let ((.def_209 (not .def_208))) (let ((.def_210 (and A0 A8))) (let ((.def_211 (and .def_210 .def_209))) (let ((.def_212 (not .def_211))) (let ((.def_213 (and .def_212 .def_207))) (let ((.def_214 (not .def_213))) (let ((.def_215 (and .def_214 .def_202))) (let ((.def_216 (and .def_215 .def_189))) (let ((.def_217 (or .def_216 .def_165))) (let ((.def_218 (not .def_217))) (let ((.def_219 (or .def_218 .def_116))) .def_219)))))))))))))))))))))))))))))))))))))))))))))))))))))))))))))))))))))))))))))))))))))))))))))))))))))))))))))))))))))))))))))))))))))))))))))))))))))))))))))))))))))))))))))))))))))))))))))))))))))))))))))))))))))))))))))
(check-sat)
